p cnf 213 565
213 0 
-73 211 0 
-73 72 0 
-211 -72 73 0 
-169 207 73 0 
169 -207 0 
169 -73 0 
-50 102 130 0 
50 -102 0 
50 -130 0 
-69 -24 0 
69 24 0 
-105 15 0 
-105 100 0 
-15 -100 105 0 
-120 160 81 0 
120 -160 0 
120 -81 0 
-157 152 81 0 
157 -152 0 
157 -81 0 
-102 186 0 
-102 128 0 
-186 -128 102 0 
-126 140 98 0 
126 -140 0 
126 -98 0 
-61 2 0 
-61 33 0 
-2 -33 61 0 
-103 148 39 0 
103 -148 0 
103 -39 0 
-14 64 113 0 
14 -64 0 
14 -113 0 
-59 -12 0 
59 12 0 
-212 16 169 0 
212 -16 0 
212 -169 0 
-202 -19 0 
202 19 0 
-94 -66 0 
94 66 0 
-94 87 146 0 
94 -87 0 
94 -146 0 
-148 2 0 
-148 33 0 
-2 -33 148 0 
-23 -47 0 
23 47 0 
-15 184 135 0 
15 -184 0 
15 -135 0 
-113 -206 0 
113 206 0 
-125 64 74 0 
125 -64 0 
125 -74 0 
-8 84 0 
-8 33 0 
-84 -33 8 0 
-71 50 0 
-71 131 0 
-50 -131 71 0 
-180 -173 0 
180 173 0 
-98 5 0 
-98 113 0 
-5 -113 98 0 
-208 74 113 0 
208 -74 0 
208 -113 0 
-180 -5 0 
180 5 0 
-176 208 0 
-176 41 0 
-208 -41 176 0 
-107 -137 0 
107 137 0 
-207 211 0 
-207 33 0 
-211 -33 207 0 
-10 88 117 0 
10 -88 0 
10 -117 0 
-150 183 54 0 
150 -183 0 
150 -54 0 
-193 -178 0 
193 178 0 
-37 205 60 0 
37 -205 0 
37 -60 0 
-114 167 0 
-114 134 0 
-167 -134 114 0 
-151 173 34 0 
151 -173 0 
151 -34 0 
-109 -211 0 
109 211 0 
-135 3 0 
-135 113 0 
-3 -113 135 0 
-39 -121 0 
39 121 0 
-184 51 0 
-184 122 0 
-51 -122 184 0 
-134 177 130 0 
134 -177 0 
134 -130 0 
-116 85 0 
-116 49 0 
-85 -49 116 0 
-16 33 0 
-16 72 0 
-33 -72 16 0 
-82 -154 0 
82 154 0 
-193 120 0 
-193 159 0 
-120 -159 193 0 
-180 189 0 
-180 179 0 
-189 -179 180 0 
-67 -33 0 
67 33 0 
-192 155 113 0 
192 -155 0 
192 -113 0 
-165 107 13 0 
165 -107 0 
165 -13 0 
-198 178 210 0 
198 -178 0 
198 -210 0 
-201 -52 0 
201 52 0 
-113 -117 0 
113 117 0 
-53 141 113 0 
53 -141 0 
53 -113 0 
-109 157 0 
-109 116 0 
-157 -116 109 0 
-69 110 0 
-69 150 0 
-110 -150 69 0 
-89 113 0 
-89 149 0 
-113 -149 89 0 
-113 -210 0 
113 210 0 
-202 1 0 
-202 33 0 
-1 -33 202 0 
-163 137 38 0 
163 -137 0 
163 -38 0 
-43 68 42 0 
43 -68 0 
43 -42 0 
-64 -205 0 
64 205 0 
-130 91 0 
-130 35 0 
-91 -35 130 0 
-9 164 166 0 
9 -164 0 
9 -166 0 
-184 -101 0 
184 101 0 
-107 57 0 
-107 58 0 
-57 -58 107 0 
-108 187 0 
-108 172 0 
-187 -172 108 0 
-58 24 44 0 
58 -24 0 
58 -44 0 
-138 80 112 0 
138 -80 0 
138 -112 0 
-160 200 0 
-160 27 0 
-200 -27 160 0 
-33 -156 0 
33 156 0 
-21 84 0 
-21 94 0 
-84 -94 21 0 
-160 -196 0 
160 196 0 
-124 61 113 0 
124 -61 0 
124 -113 0 
-87 113 0 
-87 13 0 
-113 -13 87 0 
-72 -95 0 
72 95 0 
-130 -83 0 
130 83 0 
-166 147 0 
-166 149 0 
-147 -149 166 0 
-197 -90 0 
197 90 0 
-63 -161 0 
63 161 0 
-162 26 212 0 
162 -26 0 
162 -212 0 
-171 71 33 0 
171 -71 0 
171 -33 0 
-149 -29 0 
149 29 0 
-96 174 153 0 
96 -174 0 
96 -153 0 
-78 197 94 0 
78 -197 0 
78 -94 0 
-39 124 0 
-39 97 0 
-124 -97 39 0 
-119 43 0 
-119 139 0 
-43 -139 119 0 
-111 65 148 0 
111 -65 0 
111 -148 0 
-199 -203 0 
199 203 0 
-72 89 9 0 
72 -89 0 
72 -9 0 
-200 82 152 0 
200 -82 0 
200 -152 0 
-22 161 29 0 
22 -161 0 
22 -29 0 
-74 3 0 
-74 113 0 
-3 -113 74 0 
-69 -86 0 
69 86 0 
-93 175 0 
-93 96 0 
-175 -96 93 0 
-93 -129 0 
93 129 0 
-186 177 59 0 
186 -177 0 
186 -59 0 
-155 -79 0 
155 79 0 
-67 23 0 
-67 47 0 
-23 -47 67 0 
-70 19 48 0 
70 -19 0 
70 -48 0 
-7 11 0 
-7 22 0 
-11 -22 7 0 
-118 129 203 0 
118 -129 0 
118 -203 0 
-40 202 61 0 
40 -202 0 
40 -61 0 
-108 -30 0 
108 30 0 
-197 171 0 
-197 142 0 
-171 -142 197 0 
-133 -26 0 
133 26 0 
-141 104 0 
-141 151 0 
-104 -151 141 0 
-113 170 0 
-113 158 0 
-170 -158 113 0 
-71 -55 0 
71 55 0 
-195 30 95 0 
195 -30 0 
195 -95 0 
-209 202 113 0 
209 -202 0 
209 -113 0 
-65 -80 0 
65 80 0 
-115 62 132 0 
115 -62 0 
115 -132 0 
-167 177 59 0 
167 -177 0 
167 -59 0 
-193 -147 0 
193 147 0 
-76 64 74 0 
76 -64 0 
76 -74 0 
-141 -88 0 
141 88 0 
-128 191 12 0 
128 -191 0 
128 -12 0 
-46 193 113 0 
46 -193 0 
46 -113 0 
-113 -45 0 
113 45 0 
-213 4 0 
-213 162 0 
-4 -162 213 0 
-81 204 0 
-81 114 0 
-204 -114 81 0 
-152 3 0 
-152 33 0 
-3 -33 152 0 
-85 82 152 0 
85 -82 0 
85 -152 0 
-127 33 0 
-127 94 0 
-33 -94 127 0 
-65 1 0 
-65 113 0 
-1 -113 65 0 
-91 135 176 0 
91 -135 0 
91 -176 0 
-13 -38 0 
13 38 0 
-170 -158 0 
170 158 0 
-177 194 0 
-177 118 0 
-194 -118 177 0 
-49 82 81 0 
49 -82 0 
49 -81 0 
-140 5 0 
-140 113 0 
-5 -113 140 0 
-68 -174 0 
68 174 0 
-143 90 66 0 
143 -90 0 
143 -66 0 
-41 76 0 
-41 14 0 
-76 -14 41 0 
-149 127 25 0 
149 -127 0 
149 -25 0 
-56 115 32 0 
56 -115 0 
56 -32 0 
-102 -168 0 
102 168 0 
-188 79 45 0 
188 -79 0 
188 -45 0 
-36 65 39 0 
36 -65 0 
36 -39 0 
-62 53 0 
-62 10 0 
-53 -10 62 0 
-172 92 190 0 
172 -92 0 
172 -190 0 
-105 -183 0 
105 183 0 
-57 69 113 0 
57 -69 0 
57 -113 0 
-123 108 72 0 
123 -108 0 
123 -72 0 
-181 184 135 0 
181 -184 0 
181 -135 0 
-64 192 0 
-64 188 0 
-192 -188 64 0 
-133 6 136 0 
133 -6 0 
133 -136 0 
-82 20 0 
-82 119 0 
-20 -119 82 0 
-20 42 199 0 
20 -42 0 
20 -199 0 
-189 99 113 0 
189 -99 0 
189 -113 0 
-201 111 0 
-201 138 0 
-111 -138 201 0 
-179 75 206 0 
179 -75 0 
179 -206 0 
-81 -18 0 
81 18 0 
-63 46 0 
-63 198 0 
-46 -198 63 0 
-99 125 0 
-99 37 0 
-125 -37 99 0 
-35 181 0 
-35 182 0 
-181 -182 35 0 
-122 52 121 0 
122 -52 0 
122 -121 0 
-135 -144 0 
135 144 0 
-74 -60 0 
74 60 0 
-32 78 0 
-32 143 0 
-78 -143 32 0 
-68 1 0 
-68 33 0 
-1 -33 68 0 
-175 68 42 0 
175 -68 0 
175 -42 0 
-199 103 0 
-199 28 0 
-103 -28 199 0 
-152 -106 0 
152 106 0 
-11 63 149 0 
11 -63 0 
11 -149 0 
-59 3 0 
-59 113 0 
-3 -113 59 0 
-155 40 0 
-155 70 0 
-40 -70 155 0 
-136 123 0 
-136 195 0 
-123 -195 136 0 
-204 59 130 0 
204 -59 0 
204 -130 0 
-42 -153 0 
42 153 0 
-104 180 113 0 
104 -180 0 
104 -113 0 
-110 105 176 0 
110 -105 0 
110 -176 0 
-33 -190 0 
33 190 0 
-131 168 83 0 
131 -168 0 
131 -83 0 
-17 86 0 
-17 113 0 
-86 -113 17 0 
-177 -191 0 
177 191 0 
-142 55 156 0 
142 -55 0 
142 -156 0 
-28 185 0 
-28 36 0 
-185 -36 28 0 
-148 -112 0 
148 112 0 
-145 86 0 
-145 13 0 
-86 -13 145 0 
-6 56 7 0 
6 -56 0 
6 -7 0 
-113 -44 0 
113 44 0 
-51 201 39 0 
51 -201 0 
51 -39 0 
-77 202 61 0 
77 -202 0 
77 -61 0 
-146 17 145 0 
146 -17 0 
146 -145 0 
-71 -84 0 
71 84 0 
-100 101 144 0 
100 -101 0 
100 -144 0 
-61 -48 0 
61 48 0 
-187 109 33 0 
187 -109 0 
187 -33 0 
-42 2 0 
-42 33 0 
-2 -33 42 0 
-176 -54 0 
176 54 0 
-99 -75 0 
99 75 0 
-31 113 0 
-31 113 0 
-113 -113 31 0 
-27 154 106 0 
27 -154 0 
27 -106 0 
-109 -92 0 
109 92 0 
-164 147 0 
-164 113 0 
-147 -113 164 0 
-132 165 0 
-132 163 0 
-165 -163 132 0 
-25 8 21 0 
25 -8 0 
25 -21 0 
-159 196 18 0 
159 -196 0 
159 -18 0 
-185 65 148 0 
185 -65 0 
185 -148 0 
-113 -34 0 
113 34 0 
-13 31 126 0 
13 -31 0 
13 -126 0 
-139 68 199 0 
139 -68 0 
139 -199 0 
-182 184 176 0 
182 -184 0 
182 -176 0 
-97 77 0 
-97 209 0 
-77 -209 97 0 
-194 93 199 0 
194 -93 0 
194 -199 0 
